(set-logic QF_S)
(declare-fun var0 () String)
(assert (str.in.re var0 (re.++ (re.union (re.* (str.to.re "00")) (re.* (str.to.re "111"))) (re.++ (re.* (re.+ (str.to.re "222"))) (re.++ (re.* (re.* (str.to.re "3"))) (re.++ (re.+ (re.+ (str.to.re "44"))) (re.++ (re.+ (re.union (str.to.re "55") (str.to.re "66"))) (re.++ (re.+ (re.* (str.to.re "77"))) (re.++ (re.+ (re.* (str.to.re "8"))) (re.++ (re.+ (re.union (str.to.re "9") (str.to.re "aa"))) (re.++ (re.union (re.+ (str.to.re "bbb")) (re.+ (str.to.re "cc"))) (re.++ (re.union (re.+ (str.to.re "ddd")) (re.+ (str.to.re "e"))) (re.++ (re.* (re.union (str.to.re "fff") (str.to.re "ggg"))) (re.++ (re.* (re.* (str.to.re "h"))) (re.++ (re.+ (re.+ (str.to.re "iii"))) (re.++ (re.* (re.* (str.to.re "j"))) (re.++ (re.union (re.union (str.to.re "k") (str.to.re "l")) (re.union (str.to.re "mm") (str.to.re "n"))) (re.++ (re.+ (re.+ (str.to.re "ooo"))) (re.++ (re.+ (re.* (str.to.re "pp"))) (re.++ (re.* (re.union (str.to.re "qqq") (str.to.re "r"))) (re.++ (re.* (re.+ (str.to.re "ss"))) (re.++ (re.union (re.* (str.to.re "t")) (re.* (str.to.re "uu"))) (re.++ (re.+ (re.* (str.to.re "vv"))) (re.++ (re.* (re.* (str.to.re "ww"))) (re.++ (re.+ (re.* (str.to.re "x"))) (re.++ (re.union (re.* (str.to.re "yyy")) (re.* (str.to.re "zzz"))) (re.++ (re.union (re.* (str.to.re "AAA")) (re.* (str.to.re "BBB"))) (re.++ (re.+ (re.union (str.to.re "C") (str.to.re "DDD"))) (re.++ (re.union (re.union (str.to.re "E") (str.to.re "FF")) (re.union (str.to.re "G") (str.to.re "H"))) (re.++ (re.* (re.* (str.to.re "I"))) (re.++ (re.union (re.+ (str.to.re "J")) (re.+ (str.to.re "KK"))) (re.++ (re.+ (re.+ (str.to.re "L"))) (re.++ (re.* (re.union (str.to.re "MMM") (str.to.re "NNN"))) (re.++ (re.* (re.union (str.to.re "OOO") (str.to.re "PP"))) (re.++ (re.* (re.union (str.to.re "QQ") (str.to.re "RRR"))) (re.++ (re.* (re.+ (str.to.re "S"))) (re.++ (re.* (re.union (str.to.re "TTT") (str.to.re "UU"))) (re.++ (re.union (re.* (str.to.re "VV")) (re.* (str.to.re "WW"))) (re.++ (re.union (re.union (str.to.re "XX") (str.to.re "YYY")) (re.union (str.to.re "Z") (str.to.re "!!!"))) (re.++ (re.* (re.* (str.to.re """"""""))) (re.++ (re.+ (re.+ (str.to.re "##"))) (re.++ (re.+ (re.* (str.to.re "$$"))) (re.++ (re.union (re.* (str.to.re "%%%")) (re.* (str.to.re "&&"))) (re.++ (re.+ (re.+ (str.to.re "'''"))) (re.++ (re.union (re.union (str.to.re "(") (str.to.re ")))")) (re.union (str.to.re "***") (str.to.re "++"))) (re.++ (re.+ (re.+ (str.to.re ","))) (re.++ (re.* (re.* (str.to.re "-"))) (re.++ (re.* (re.* (str.to.re "."))) (re.++ (re.+ (re.+ (str.to.re "/"))) (re.++ (re.+ (re.+ (str.to.re "::"))) (re.++ (re.+ (re.* (str.to.re ";;;"))) (re.++ (re.union (re.union (str.to.re "<<<") (str.to.re "==")) (re.union (str.to.re ">>") (str.to.re "???"))) (re.++ (re.+ (re.union (str.to.re "@@@") (str.to.re "[["))) (re.++ (re.union (re.union (str.to.re "\\") (str.to.re "]]")) (re.union (str.to.re "^^^") (str.to.re "___"))) (re.++ (re.* (re.* (str.to.re "``"))) (re.++ (re.+ (re.* (str.to.re "{{{"))) (re.++ (re.* (re.+ (str.to.re "||"))) (re.++ (re.* (re.union (str.to.re "}}}") (str.to.re "~"))) (re.++ (re.* (re.+ (str.to.re "0"))) (re.++ (re.+ (re.union (str.to.re "111") (str.to.re "22"))) (re.++ (re.+ (re.union (str.to.re "3") (str.to.re "44"))) (re.++ (re.union (re.+ (str.to.re "55")) (re.+ (str.to.re "66"))) (re.++ (re.union (re.* (str.to.re "777")) (re.* (str.to.re "888"))) (re.++ (re.* (re.union (str.to.re "9") (str.to.re "aa"))) (re.++ (re.+ (re.+ (str.to.re "b"))) (re.union (re.union (str.to.re "ccc") (str.to.re "ddd")) (re.union (str.to.re "eee") (str.to.re "fff"))))))))))))))))))))))))))))))))))))))))))))))))))))))))))))))))))))
(check-sat)